p cnf 34 87
a 25 31 0
e 1 2 3 4 5 6 7 8 9 10 11 12 13 14 15 16 17 18 19 20 21 22 23 24 26 27 28 29 30 32 33 34 0
2 -1 0
2 -1 0
1 -2 0
-5 3 0
-5 4 0
-3 -4 5 0
6 -5 0
6 -5 0
5 -6 0
7 2 0
7 -6 0
-2 6 -7 0
10 8 0
10 -9 0
-8 9 -10 0
10 -11 -12 0
-10 11 -12 0
10 11 12 0
-10 -11 12 0
13 7 0
13 -12 0
-7 12 -13 0
14 -15 -16 0
-14 15 -16 0
14 15 16 0
-14 -15 16 0
17 3 0
17 -16 0
-3 16 -17 0
-5 -17 -18 0
5 17 -18 0
-5 17 18 0
5 -17 18 0
-20 -18 0
-20 -19 0
18 19 20 0
22 4 0
22 21 0
-4 -21 -22 0
-23 -20 0
-23 22 0
20 -22 23 0
24 13 0
24 -23 0
-13 23 -24 0
15 1 -25 0
-15 -1 -25 0
15 -1 25 0
-15 1 25 0
-26 25 0
-26 -19 0
-25 19 26 0
-27 -24 0
-27 26 0
24 -26 27 0
28 9 0
28 -5 0
-9 5 -28 0
21 -28 -29 0
-21 28 -29 0
21 28 29 0
-21 -28 29 0
-30 -18 0
-30 25 0
18 -25 30 0
-29 30 -31 0
29 -30 -31 0
-29 -30 31 0
29 30 31 0
-32 6 0
-32 -2 0
-6 2 32 0
-33 31 0
-33 32 0
-31 -32 33 0
34 -27 0
34 33 0
27 -33 -34 0
-4 -17 3 0
-18 -24 16 -11 -5 -9 0
-27 3 -26 20 0
23 21 9 -16 -13 0
8 -31 -3 -7 -6 2 0
-11 -6 -17 -22 0
-31 27 34 22 13 0
6 7 22 0
34 0
